8 -33 0
h 28 -5 0
h 2 7 0
6 -36 0
h 3 9 0
h 11 -3 7 0
9 -11 0
h 34 2 0
1 1 0
13 -8 0
h 4 -2 0
h 6 37 0
h 12 -4 0
h 36 -8 0
h -7 -6 0
9 -31 0
12 -3 0
1 7 3 0
17 -34 0
10 -15 0
10 -39 0
11 -37 0
h -4 6 0
11 -28 0
h 5 -2 0
1 -1 0
h 33 -8 0
15 4 8 0
h 27 5 0
h 11 3 -7 0
h -6 39 1 0
h -3 2 0
h -1 3 0
h -2 8 31 0
1 -27 0
11 -9 0
10 -12 0
h -4 15 0
